

*************************************************************

   NEOS Server Version 6.0
   Job#     : 18292976
   Password : FXyVOPNZ
   User     : 
   Solver   : milp:Gurobi:AMPL
   Start    : 2026-01-28 15:17:39
   End      : 2026-01-28 15:19:19
   Host     : prod-sub-1.neos-server.org

   Disclaimer:

   This information is provided without any express or
   implied warranty. In particular, there is no warranty
   of any kind concerning the fitness of this
   information for any particular purpose.

   Announcements:
*************************************************************
You are using the solver gurobi_ampl.
Checking ampl.mod for gurobi_options...
Checking ampl.com for gurobi_options...
Executing AMPL.
processing data.
processing commands.
Executing on prod-exec-6.neos-server.org
N = 300


"option presolve 0;" used, but "option presolve 10;" might work better.
300 variables, all nonlinear
0 algebraic constraints
3 logical constraints
1 linear objective; 300 nonzeros.

Gurobi 12.0.3:   tech:threads = 4
  pre:solve = 2
  alg:iisfind = 1
Set parameter LogToConsole to value 1
  tech:outlev = 1

AMPL MP initial flat model has 300 variables (300 integer, 0 binary);
Objectives: 1 linear; 
Constraints:  600 linear;
Logical expressions:  3 alldiff;

AMPL MP final model has 270904 variables (903 integer, 270000 binary);
Objectives: 1 linear; 
Constraints:  3298 linear;


Set parameter InfUnbdInfo to value 1
Gurobi Optimizer version 12.0.3 build v12.0.3rc0 (linux64 - "Rocky Linux 8.10 (Green Obsidian)")

CPU model: Intel(R) Xeon(R) Gold 6140 CPU @ 2.30GHz, instruction set [SSE2|AVX|AVX2|AVX512]
Thread count: 36 physical cores, 72 logical processors, using up to 4 threads

Non-default parameters:
InfUnbdInfo  1
Presolve  2
Threads  4

Optimize a model with 3298 rows, 270904 columns and 811796 nonzeros
Model fingerprint: 0x420852e7
Variable types: 604 continuous, 270300 integer (0 binary)
Coefficient statistics:
  Matrix range     [1e+00, 6e+02]
  Objective range  [0e+00, 0e+00]
  Bounds range     [1e+00, 3e+02]
  RHS range        [1e+00, 3e+02]
Presolve removed 4 rows and 604 columns (presolve time = 5s)...
Presolve removed 4 rows and 604 columns (presolve time = 10s)...
Presolve removed 4 rows and 604 columns (presolve time = 15s)...
Presolve removed 4 rows and 604 columns (presolve time = 20s)...
Presolve removed 4 rows and 61422 columns (presolve time = 31s)...
Presolve removed 4 rows and 61422 columns (presolve time = 35s)...
Presolve removed 4 rows and 61422 columns (presolve time = 40s)...
Presolve removed 4 rows and 61422 columns (presolve time = 45s)...
Presolve removed 903 rows and 180602 columns (presolve time = 50s)...
Presolve removed 903 rows and 180602 columns
Presolve time: 53.02s
Presolved: 2395 rows, 90302 columns, 540314 nonzeros
Variable types: 0 continuous, 90302 integer (90002 binary)
Root relaxation presolve removed 302 rows and 3 columns
Root relaxation presolved: 2093 rows, 90299 columns, 449714 nonzeros

Deterministic concurrent LP optimizer: primal simplex, dual simplex, and barrier
Showing barrier log only...

Root barrier log...

Ordering time: 0.05s

Barrier statistics:
 AA' NZ     : 8.076e+05
 Factor NZ  : 1.394e+06 (roughly 50 MB of memory)
 Factor Ops : 1.344e+09 (less than 1 second per iteration)
 Threads    : 1

                  Objective                Residual
Iter       Primal          Dual         Primal    Dual     Compl     Time
   0   0.00000000e+00 -5.55018750e+02  7.90e+03 0.00e+00  6.85e-01    54s
   1   0.00000000e+00 -8.16636369e+02  2.98e+03 8.95e-16  2.61e-01    54s
   2   0.00000000e+00 -5.56285511e+02  7.73e+02 5.41e-16  6.91e-02    54s
   3   0.00000000e+00 -3.62819771e+02  1.54e+02 7.49e-16  1.51e-02    55s
   4   0.00000000e+00 -2.61514290e+02  3.98e+01 4.44e-16  4.49e-03    55s
   5   0.00000000e+00 -1.81059741e+02  1.20e+01 2.91e-16  1.75e-03    55s
   6   0.00000000e+00 -5.41738291e+01  2.34e+00 6.11e-16  3.54e-04    55s
   7   0.00000000e+00 -2.95039169e+00  2.67e-02 4.79e-16  1.63e-05    55s
   8   0.00000000e+00 -2.94678007e-03  1.11e-05 1.81e-16  1.62e-08    55s
   9   0.00000000e+00 -5.69393466e-06  2.60e-08 3.35e-16  3.13e-11    55s
  10   0.00000000e+00 -5.69393218e-09  2.67e-11 2.17e-16  3.13e-14    55s

Barrier solved model in 10 iterations and 55.30 seconds (47.77 work units)
Optimal objective 0.00000000e+00


Root crossover log...

     196 DPushes remaining with DInf 0.0000000e+00                58s
       0 DPushes remaining with DInf 0.0000000e+00                58s

     357 PPushes remaining with PInf 7.2716001e-06                58s
       0 PPushes remaining with PInf 0.0000000e+00                58s

  Push phase complete: Pinf 0.0000000e+00, Dinf 0.0000000e+00     58s


Root simplex log...

Iteration    Objective       Primal Inf.    Dual Inf.      Time
     554    0.0000000e+00   0.000000e+00   0.000000e+00     58s
Concurrent spin time: 0.00s

Solved with barrier
     554    0.0000000e+00   0.000000e+00   0.000000e+00     58s

Root relaxation: objective 0.000000e+00, 554 iterations, 4.22 seconds (2.75 work units)
Total elapsed time = 63.58s (DegenMoves)
Total elapsed time = 82.66s (DegenMoves)

    Nodes    |    Current Node    |     Objective Bounds      |     Work
 Expl Unexpl |  Obj  Depth IntInf | Incumbent    BestBd   Gap | It/Node Time

     0     0    0.00000    0   50          -    0.00000      -     -   85s
H    0     0                       0.0000000    0.00000  0.00%     -   86s
     0     0    0.00000    0   50    0.00000    0.00000  0.00%     -   86s

Explored 1 nodes (172864 simplex iterations) in 86.65 seconds (81.45 work units)
Thread count was 4 (of 72 available processors)

Solution count 1: 0 

Optimal solution found (tolerance 1.00e-04)
Best objective 0.000000000000e+00, best bound 0.000000000000e+00, gap 0.0000%
Gurobi 12.0.3: optimal solution; objective 0
172864 simplex iterations
10 barrier iterations
1 branching node
Solution
========
 1 131
 2 177
 3 138
 4 65
 5 125
 6 288
 7 212
 8 76
 9 79
10 148
11 60
12 99
13 193
14 39
15 43
16 267
17 146
18 208
19 284
20 152
21 112
22 289
23 278
24 221
25 227
26 157
27 182
28 179
29 109
30 186
31 133
32 50
33 258
34 198
35 219
36 142
37 161
38 154
39 283
40 69
41 116
42 159
43 94
44 82
45 90
46 268
47 265
48 111
49 163
50 22
51 233
52 96
53 257
54 173
55 271
56 132
57 134
58 282
59 86
60 40
61 135
62 45
63 210
64 238
65 224
66 102
67 19
68 274
69  1
70 158
71 37
72 18
73 215
74 181
75 287
76 128
77 231
78 239
79 129
80 291
81 48
82 273
83 249
84 244
85 91
86 127
87 100
88 26
89 63
90 216
91 130
92 300
93 232
94 230
95 89
96 190
97 195
98 119
99 299
100 42
101 66
102 38
103 206
104 121
105 124
106 108
107 279
108 143
109 295
110 203
111 11
112 85
113 31
114 276
115 248
116 64
117 270
118 57
119 12
120 83
121  3
122 59
123 196
124 229
125 123
126  2
127 290
128 228
129 191
130 24
131 16
132 140
133 67
134 21
135 285
136 246
137 170
138 259
139  4
140  6
141 205
142 234
143 56
144 225
145 75
146 72
147 118
148 145
149 272
150 293
151 139
152 14
153 213
154  8
155 98
156 160
157 113
158 47
159 241
160 218
161 286
162 77
163 117
164 263
165 250
166 29
167 262
168 25
169 172
170 253
171 201
172 281
173 93
174 156
175 58
176 120
177 242
178 80
179 78
180 204
181 235
182 103
183 174
184 297
185 222
186 255
187 194
188 23
189 261
190 180
191 87
192 247
193 30
194 28
195 292
196 171
197 197
198 51
199 178
200 149
201 211
202 97
203 84
204 34
205 36
206 44
207 114
208 165
209 251
210 256
211 13
212 52
213 68
214 104
215 27
216 55
217 88
218 115
219 266
220 175
221 214
222 245
223  7
224 240
225 126
226 33
227 141
228 155
229 71
230 183
231 105
232  5
233 10
234 254
235  9
236 41
237 166
238 110
239 209
240 200
241 35
242 167
243 32
244 184
245 192
246 223
247 15
248 49
249 74
250 298
251 252
252 150
253 296
254 164
255 260
256 168
257 226
258 122
259 70
260 151
261 185
262 294
263 277
264 275
265 17
266 92
267 243
268 176
269 136
270 189
271 81
272 217
273 106
274 101
275 237
276 199
277 62
278 107
279 147
280 264
281 187
282 269
283 188
284 53
285 137
286 236
287 73
288 144
289 162
290 207
291 54
292 153
293 202
294 169
295 20
296 95
297 46
298 220
299 280
300 61

NEOS Server Home

